r = [
0,60,161,177,59,73,100,9,69,83,116,124,24,140,65,47,72,125,164,38,82,168,79,12,152,107,0
];
p = [
0,16,29,10,3,7,29,12,24,5,21,9,30,7,11,4,26,20,1,8,24,14,26,27,8,2,0
];
e = [
0,11,13,13,15,3,1,11,6,15,12,12,1,7,9,15,4,18,17,13,11,13,19,7,18,9,0
];
d = [
0,235,312,459,408,425,193,151,386,200,294,346,220,232,261,309,408,215,328,241,156,414,289,226,451,318,468
];
d_bar = [
0,249,338,468,411,431,219,162,408,205,313,354,247,238,271,313,431,233,329,248,178,427,312,250,458,320,468
];
w = [
0,0.785714286,0.5,1.444444444,5,0.5,0.038461538,1,0.272727273,3,0.631578947,1.5,0.037037037,1.166666667,0.9,3.75,0.173913043,1,17,1.857142857,0.5,1,0.826086957,0.291666667,2.571428571,4.5,0
];
